Route #1: 110 128 124 134 148 109 2 82 118 151 101 4 87 112 157 30
Route #2: 88 96 95 129 142 43 123 56 66 94 36 100 106 31 35
Route #3: 84 153 160 122 107 133 14 1 55 60 21 9 27 117 97
Route #4: 13 24 49 6 37 71 5 57 131 32 16 146 39 137 108
Route #5: 144 126 89 149 138 143 121 85 147 159 40 132 93 103
Route #6: 10 119 135 105 139 17 77 161 65 70 113 63 104 83 98
Route #7: 90 145 99 130 68 58 11 38 73 48 23 120 158 81 74
Route #8: 78 34 7 44 19 18 64 12 51 3 33 75 42 69 46
Route #9: 116 111 140 154 102 114 62 67 22 20 79 53 86 26 28 150
Route #10: 52 80 45 152 91 136 156 155 92 125 115 141 15 29 127 72
Route #11: 50 59 54 8 61 41 76 25 47
Cost 15905.6747094501